************************************************************************
file with basedata            : md368_.bas
initial value random generator: 5443
************************************************************************
projects                      :  1
jobs (incl. supersource/sink ):  22
horizon                       :  156
RESOURCES
  - renewable                 :  2   R
  - nonrenewable              :  2   N
  - doubly constrained        :  0   D
************************************************************************
PROJECT INFORMATION:
pronr.  #jobs rel.date duedate tardcost  MPM-Time
    1     20      0       21       15       21
************************************************************************
PRECEDENCE RELATIONS:
jobnr.    #modes  #successors   successors
   1        1          3           2   3   4
   2        3          3           5   6   8
   3        3          3           6   7   8
   4        3          3          10  13  19
   5        3          2           7  13
   6        3          3           9  11  14
   7        3          2          20  21
   8        3          3          10  14  19
   9        3          1          12
  10        3          1          11
  11        3          3          15  17  20
  12        3          3          13  17  19
  13        3          2          15  20
  14        3          1          21
  15        3          1          16
  16        3          1          18
  17        3          1          18
  18        3          1          21
  19        3          1          22
  20        3          1          22
  21        3          1          22
  22        1          0        
************************************************************************
REQUESTS/DURATIONS:
jobnr. mode duration  R 1  R 2  N 1  N 2
------------------------------------------------------------------------
  1      1     0       0    0    0    0
  2      1     1       8    7    4    7
         2     5       8    7    4    6
         3     6       8    6    3    3
  3      1     2       3    5    5    6
         2     2       3    7    5    5
         3    10       3    3    1    5
  4      1     1       5    7   10    8
         2     2       3    7    4    8
         3    10       1    7    2    7
  5      1     2       5    8    8    8
         2     4       5    8    6    6
         3     9       4    8    4    6
  6      1     1       7    7    8    6
         2     4       7    5    8    4
         3     7       4    2    7    4
  7      1     3      10    7   10    7
         2     3       8    8    8    8
         3     6       2    6    4    5
  8      1     4       5    9    9   10
         2     6       4    8    8    8
         3     7       3    8    6    8
  9      1     2       5    6    7   10
         2     5       5    5    6    7
         3     6       5    5    6    5
 10      1     1       7    7    9    8
         2     6       7    6    9    7
         3     7       4    6    8    3
 11      1     3      10    9    8    8
         2     6       8    7    5    5
         3     7       8    7    5    2
 12      1     4       3    9    9    9
         2     4       5    9    9    6
         3     5       2    7    8    2
 13      1     3      10    9    4    8
         2     3      10    9    5    7
         3     4      10    7    2    5
 14      1     2       5   10   10    9
         2     3       4    9    8    8
         3    10       2    9    7    8
 15      1     1       8    6    6    7
         2     2       7    6    6    5
         3     7       6    5    4    4
 16      1     3       4    6    4    6
         2     5       3    6    2    5
         3     8       3    6    1    4
 17      1     5       3    2    8    6
         2     7       2    2    7    5
         3     9       1    2    4    4
 18      1     2      10    4    7    4
         2     9       9    4    7    3
         3    10       9    4    7    2
 19      1     7       9    5    6    4
         2     8       8    4    6    3
         3    10       8    4    2    2
 20      1     3       8    6    9   10
         2     4       7    6    7    9
         3     9       6    2    6    9
 21      1     3       8   10    9    9
         2     7       6   10    8    8
         3     9       2   10    7    8
 22      1     0       0    0    0    0
************************************************************************
RESOURCEAVAILABILITIES:
  R 1  R 2  N 1  N 2
   29   28  123  124
************************************************************************
MAXIMAL LAGS:
from  to  type  delay
    1   22   ES      0
    1    2   ES      0
    2   22   ES      0
    1    3   ES      0
    3   22   ES      0
    1    4   ES      0
    4   22   ES      0
    1    5   ES      0
    5   22   ES      0
    1    6   ES      0
    6   22   ES      0
    1    7   ES      0
    7   22   ES      0
    1    8   ES      0
    8   22   ES      0
    1    9   ES      0
    9   22   ES      0
    1   10   ES      0
   10   22   ES      0
    1   11   ES      0
   11   22   ES      0
    1   12   ES      0
   12   22   ES      0
    1   13   ES      0
   13   22   ES      0
    1   14   ES      0
   14   22   ES      0
    1   15   ES      0
   15   22   ES      0
    1   16   ES      0
   16   22   ES      0
    1   17   ES      0
   17   22   ES      0
    1   18   ES      0
   18   22   ES      0
    1   19   ES      0
   19   22   ES      0
    1   20   ES      0
   20   22   ES      0
    1   21   ES      0
   21   22   ES      0
    1   22   ES      0
    2    5   SS     -4
    2    5   SE     -3
    2    5   ES      7
    2    5   EE     -6
    2    6   SS     12
    2    6   SE     -5
    2    6   ES      6
    2    6   EE     -7
    2    8   SS      2
    2    8   SE    -10
    2    8   ES      9
    2    8   EE      6
    3    6   SS     -2
    3    6   SE     -4
    3    6   ES    -12
    3    6   EE      1
    3    7   SS     -5
    3    7   SE      4
    3    7   ES     -2
    3    7   EE      1
    3    8   SS      2
    3    8   SE    -12
    3    8   ES     -8
    3    8   EE    -11
    4   10   SS     11
    4   10   SE      2
    4   10   ES      8
    4   10   EE    -10
    4   13   SS     12
    4   13   SE     -1
    4   13   ES     -6
    4   13   EE      2
    4   19   SS      5
    4   19   SE      9
    4   19   ES     -4
    4   19   EE     -7
    5    7   SS    -11
    5    7   SE      9
    5    7   ES     -1
    5    7   EE     -1
    5   13   SS      9
    5   13   SE      8
    5   13   ES     -1
    5   13   EE     11
    6    9   SS     -2
    6    9   SE     12
    6    9   ES     -5
    6    9   EE      9
    6   11   SS     -2
    6   11   SE     -4
    6   11   ES     -3
    6   11   EE     12
    6   14   SS    -11
    6   14   SE      2
    6   14   ES     12
    6   14   EE      4
    7   20   SS     10
    7   20   SE      6
    7   20   ES      9
    7   20   EE      1
    7   21   SS      2
    7   21   SE      2
    7   21   ES     10
    7   21   EE      4
    8   10   SS      4
    8   10   SE      5
    8   10   ES      6
    8   10   EE     -7
    8   14   SS      8
    8   14   SE     10
    8   14   ES     11
    8   14   EE     -8
    8   19   SS     -9
    8   19   SE     12
    8   19   ES    -11
    8   19   EE     11
    9   12   SS    -11
    9   12   SE      2
    9   12   ES     12
    9   12   EE     -8
   10   11   SS      9
   10   11   SE      9
   10   11   ES    -12
   10   11   EE     -4
   11   15   SS    -12
   11   15   SE     12
   11   15   ES     12
   11   15   EE      7
   11   17   SS     -3
   11   17   SE      3
   11   17   ES     12
   11   17   EE    -10
   11   20   SS     -9
   11   20   SE     -7
   11   20   ES     -3
   11   20   EE      0
   12   13   SS     -9
   12   13   SE     10
   12   13   ES      2
   12   13   EE     -1
   12   17   SS      9
   12   17   SE      3
   12   17   ES      5
   12   17   EE     10
   12   19   SS    -12
   12   19   SE     -4
   12   19   ES     -9
   12   19   EE    -12
   13   15   SS     10
   13   15   SE     -3
   13   15   ES      5
   13   15   EE      1
   13   20   SS      1
   13   20   SE      3
   13   20   ES    -10
   13   20   EE      4
   14   21   SS      1
   14   21   SE     -4
   14   21   ES     -4
   14   21   EE     -8
   15   16   SS      1
   15   16   SE     -8
   15   16   ES     12
   15   16   EE     -3
   16   18   SS     -3
   16   18   SE      3
   16   18   ES    -11
   16   18   EE     10
   17   18   SS     -4
   17   18   SE      6
   17   18   ES      5
   17   18   EE      1
   18   21   SS      3
   18   21   SE    -10
   18   21   ES     -9
   18   21   EE    -12
************************************************************************
